(set-logic QF_S)
(declare-fun var0 () String)
(assert (RegexIn var0 (RegexConcat (RegexStar (RegexUnion (RegexPlus (RegexPlus (RegexPlus (RegexUnion (RegexStar (RegexStar (RegexStar (RegexStar (RegexPlus (RegexPlus (Str2Reg "00"))))))) (RegexStar (RegexPlus (RegexUnion (RegexStar (RegexUnion (RegexUnion (Str2Reg "11") (Str2Reg "2")) (RegexUnion (Str2Reg "3") (Str2Reg "44")))) (RegexStar (RegexUnion (RegexPlus (Str2Reg "5")) (RegexPlus (Str2Reg "666"))))))))))) (RegexPlus (RegexUnion (RegexUnion (RegexStar (RegexStar (RegexStar (RegexStar (RegexUnion (RegexUnion (RegexUnion (Str2Reg "77") (Str2Reg "88")) (RegexUnion (Str2Reg "9") (Str2Reg "aa"))) (RegexUnion (RegexUnion (Str2Reg "b") (Str2Reg "ccc")) (RegexUnion (Str2Reg "dd") (Str2Reg "e")))))))) (RegexStar (RegexPlus (RegexUnion (RegexUnion (RegexStar (RegexStar (RegexStar (Str2Reg "f")))) (RegexStar (RegexPlus (RegexUnion (Str2Reg "ggg") (Str2Reg "hhh"))))) (RegexUnion (RegexStar (RegexUnion (RegexUnion (Str2Reg "i") (Str2Reg "jj")) (RegexUnion (Str2Reg "kkk") (Str2Reg "lll")))) (RegexStar (RegexPlus (RegexPlus (Str2Reg "mmm"))))))))) (RegexUnion (RegexUnion (RegexStar (RegexPlus (RegexPlus (RegexPlus (RegexUnion (RegexStar (Str2Reg "nn")) (RegexStar (Str2Reg "o"))))))) (RegexStar (RegexPlus (RegexUnion (RegexPlus (RegexUnion (RegexStar (Str2Reg "p")) (RegexStar (Str2Reg "qqq")))) (RegexPlus (RegexPlus (RegexStar (Str2Reg "rrr")))))))) (RegexUnion (RegexStar (RegexUnion (RegexStar (RegexStar (RegexStar (RegexStar (Str2Reg "sss"))))) (RegexStar (RegexUnion (RegexStar (RegexPlus (Str2Reg "tt"))) (RegexStar (RegexStar (Str2Reg "uu"))))))) (RegexStar (RegexPlus (RegexPlus (RegexUnion (RegexStar (RegexPlus (Str2Reg "vvv"))) (RegexStar (RegexStar (Str2Reg "w"))))))))))))) (RegexPlus (RegexPlus (RegexUnion (RegexStar (RegexUnion (RegexStar (RegexStar (RegexStar (RegexStar (RegexUnion (RegexStar (RegexPlus (Str2Reg "xxx"))) (RegexStar (RegexUnion (Str2Reg "yyy") (Str2Reg "zzz")))))))) (RegexStar (RegexStar (RegexUnion (RegexUnion (RegexUnion (RegexUnion (RegexStar (Str2Reg "A")) (RegexStar (Str2Reg "BBB"))) (RegexUnion (RegexStar (Str2Reg "CC")) (RegexStar (Str2Reg "DD")))) (RegexUnion (RegexPlus (RegexStar (Str2Reg "EEE"))) (RegexPlus (RegexUnion (Str2Reg "FF") (Str2Reg "GG"))))) (RegexUnion (RegexPlus (RegexPlus (RegexStar (Str2Reg "HHH")))) (RegexPlus (RegexUnion (RegexStar (Str2Reg "II")) (RegexStar (Str2Reg "JJJ")))))))))) (RegexStar (RegexStar (RegexUnion (RegexPlus (RegexPlus (RegexStar (RegexStar (RegexPlus (RegexUnion (Str2Reg "K") (Str2Reg "LL"))))))) (RegexPlus (RegexStar (RegexPlus (RegexUnion (RegexUnion (RegexStar (Str2Reg "MMM")) (RegexStar (Str2Reg "N"))) (RegexUnion (RegexPlus (Str2Reg "OOO")) (RegexPlus (Str2Reg "PP"))))))))))))))))
(assert (<= 15 (Length var0)))
(check-sat)